5
478 410 311  923
225 80 170  575
25 255 185  833
40 276 387  144
252 427 180  216
10
26 405 284  18 276
194 393 260  302 130
395 288 235  176 468
358 266 450  203 291
295 359 254  436 356
135 386 413  445 234
423 445 450  434 386
83 11 451  330 228
170 287 206  303 11
71 348 438  219 298
